(set-option :print-success false)
(set-logic QF_UF)
(declare-sort x120 0)
(declare-sort x128 0)
(declare-fun x154 () x128)
(declare-fun x105 () x128)
(declare-fun x144 () x128)
(declare-fun x88 (x128 x128) x128)
(declare-fun x42 () x128)
(declare-fun x116 (x128 x128) x128)
(declare-fun x145 () x128)
(assert (let ((x7 (x88 x154 x154)) (x137 (x88 x145 x145)) (x126 (x88 x42 x42)) (x31 (x88 x144 x144)) (x14 (x88 x105 x105))) (let ((x149 (= x7 x154)) (x50 (= x144 x31)) (x89 (= x137 x145)) (x53 (= x42 x126)) (x117 (= x105 x14))) (let ((x92 (and (not (= x137 x144)) (and (and (and (not (= x144 x126)) (not (= x144 x7))) (not x50)) (not (= x144 x14))))) (x54 (and (and (and (and (not (= x42 x7)) (not x53)) (not (= x42 x31))) (not (= x42 x14))) (not (= x137 x42)))) (x103 (and (and (not (= x14 x145)) (and (and (not (= x145 x7)) (not (= x126 x145))) (not (= x31 x145)))) (not x89))) (x147 (and (and (and (not (= x31 x105)) (and (not (= x105 x126)) (not (= x105 x7)))) (not x117)) (not (= x137 x105)))) (x64 (and (not (= x137 x154)) (and (and (not (= x154 x31)) (and (not x149) (not (= x126 x154)))) (not (= x154 x14)))))) (or (or (or (or (or (and (= (x88 x144 x105) x144) x147) (or (or (and x54 (= x144 (x88 x144 x42))) (and (= (x88 x144 x154) x144) x64)) (and x50 x92))) (and (= (x88 x144 x145) x144) x103)) (or (or (or (or (or (and x64 (= x42 (x88 x42 x154))) (and x53 x54)) (and (= x42 (x88 x42 x144)) x92)) (and (= (x88 x42 x105) x42) x147)) (and x103 (= x42 (x88 x42 x145)))) (or (or (and (= x154 (x88 x154 x105)) x147) (or (or (and x54 (= (x88 x154 x42) x154)) (and x64 x149)) (and x92 (= x154 (x88 x154 x144))))) (and x103 (= (x88 x154 x145) x154))))) (or (or (or (or (and x54 (= (x88 x105 x42) x105)) (and (= x105 (x88 x105 x154)) x64)) (and (= x105 (x88 x105 x144)) x92)) (and x147 x117)) (and x103 (= x105 (x88 x105 x145))))) (or (or (and x147 (= x145 (x88 x145 x105))) (or (and (= (x88 x145 x144) x145) x92) (or (and x64 (= x145 (x88 x145 x154))) (and (= (x88 x145 x42) x145) x54)))) (and x103 x89)))))))
(assert (or (and (and (and (not (= (x88 (x88 x144 x145) x145) x144)) (and (not (= x42 (x88 (x88 x42 x145) x145))) (not (= x154 (x88 (x88 x154 x145) x145))))) (not (= (x88 (x88 x105 x145) x145) x105))) (not (= (x88 (x88 x145 x145) x145) x145))) (or (or (or (and (not (= x145 (x88 (x88 x145 x42) x42))) (and (and (and (not (= x42 (x88 (x88 x42 x42) x42))) (not (= (x88 (x88 x154 x42) x42) x154))) (not (= (x88 (x88 x144 x42) x42) x144))) (not (= (x88 (x88 x105 x42) x42) x105)))) (and (not (= x145 (x88 (x88 x145 x154) x154))) (and (not (= x105 (x88 (x88 x105 x154) x154))) (and (and (not (= (x88 (x88 x42 x154) x154) x42)) (not (= x154 (x88 (x88 x154 x154) x154)))) (not (= x144 (x88 (x88 x144 x154) x154))))))) (and (not (= (x88 (x88 x145 x144) x144) x145)) (and (not (= x105 (x88 (x88 x105 x144) x144))) (and (not (= x144 (x88 (x88 x144 x144) x144))) (and (not (= x42 (x88 (x88 x42 x144) x144))) (not (= x154 (x88 (x88 x154 x144) x144)))))))) (and (and (not (= x105 (x88 (x88 x105 x105) x105))) (and (and (not (= x154 (x88 (x88 x154 x105) x105))) (not (= (x88 (x88 x42 x105) x105) x42))) (not (= x144 (x88 (x88 x144 x105) x105))))) (not (= (x88 (x88 x145 x105) x105) x145))))))
(assert (let ((x157 (x88 x145 x105)) (x31 (x88 x154 x154)) (x35 (x88 x42 x145)) (x115 (x88 x154 x145)) (x103 (x88 x105 x154)) (x64 (x88 x144 x144)) (x126 (x88 x154 x42)) (x71 (x88 x42 x144)) (x50 (x88 x154 x105)) (x54 (x88 x144 x154)) (x11 (x88 x145 x42)) (x143 (x88 x42 x42)) (x122 (x88 x144 x145)) (x28 (x88 x105 x105)) (x32 (x88 x145 x154)) (x149 (x88 x154 x144)) (x117 (x88 x105 x144)) (x94 (x88 x42 x105)) (x12 (x88 x145 x145)) (x92 (x88 x105 x42)) (x14 (x88 x144 x42)) (x52 (x88 x145 x144)) (x66 (x88 x105 x145)) (x118 (x88 x42 x154)) (x89 (x88 x144 x105))) (let ((x60 (not (= x105 x103))) (x53 (not (= x42 x143))) (x59 (not (= x105 x117))) (x21 (not (= x154 x126))) (x96 (not (= x54 x144))) (x79 (not (= x149 x154))) (x86 (not (= x92 x105))) (x72 (not (= x50 x154))) (x7 (not (= x42 x118))) (x137 (not (= x71 x42))) (x5 (not (= x32 x145))) (x76 (not (= x145 x52))) (x147 (not (= x42 x94))) (x100 (not (= x157 x145))) (x141 (not (= x145 x11))) (x51 (not (= x28 x105))) (x57 (not (= x105 x66))) (x13 (not (= x154 x115))) (x27 (not (= x145 x12))) (x90 (not (= x122 x144))) (x17 (not (= x14 x144))) (x4 (not (= x89 x144))) (x26 (not (= x154 x31))) (x48 (not (= x42 x35))) (x3 (not (= x64 x144)))) (or (and (and (and (and (and (or x5 (not (= x115 x145))) (and (and (and (or x7 (not (= x145 x126))) (or (not (= x145 x31)) x26)) (or x96 (not (= x149 x145)))) (or x60 (not (= x145 x50))))) (and (or (not (= x35 x145)) x141) (and (and (or (not (= x71 x145)) x17) (and (or x53 (not (= x143 x145))) (or (not (= x145 x118)) x21))) (or (not (= x145 x94)) x86)))) (and (or x76 (not (= x145 x122))) (and (or (not (= x89 x145)) x59) (and (and (or (not (= x145 x54)) x79) (or (not (= x145 x14)) x137)) (or x3 (not (= x145 x64))))))) (and (and (and (or x4 (not (= x145 x117))) (and (or (not (= x103 x145)) x72) (or x147 (not (= x145 x92))))) (or (not (= x145 x28)) x51)) (or (not (= x66 x145)) x100))) (and (or x27 x27) (and (or x57 x100) (and (or x76 x90) (and (or x141 x48) (or x13 x5)))))) (or (or (and (and (and (and (or (not (= x28 x144)) x51) (and (and (or (not (= x144 x103)) x72) (or (not (= x92 x144)) x147)) (or x4 (not (= x117 x144))))) (or x100 (not (= x144 x66)))) (and (and (and (or x59 x4) (and (or x3 x3) (and (or x17 x137) (or x96 x79)))) (or x90 x76)) (and (and (and (and (or (not (= x144 x149)) x96) (and (or (not (= x144 x126)) x7) (or (not (= x31 x144)) x26))) (or (not (= x144 x50)) x60)) (or (not (= x115 x144)) x5)) (and (and (or (not (= x144 x94)) x86) (and (or (not (= x71 x144)) x17) (and (or (not (= x144 x143)) x53) (or x21 (not (= x118 x144)))))) (or x141 (not (= x35 x144))))))) (and (or x27 (not (= x144 x12))) (and (and (and (or (not (= x32 x144)) x13) (or x48 (not (= x11 x144)))) (or x90 (not (= x144 x52)))) (or (not (= x157 x144)) x57)))) (or (and (and (or x27 (not (= x12 x154))) (and (or x57 (not (= x154 x157))) (and (and (or (not (= x154 x11)) x48) (or (not (= x154 x32)) x13)) (or x90 (not (= x154 x52)))))) (and (and (or (not (= x66 x154)) x100) (and (and (and (or (not (= x103 x154)) x72) (or x147 (not (= x154 x92)))) (or (not (= x154 x117)) x4)) (or x51 (not (= x28 x154))))) (and (and (and (and (or x60 x72) (and (and (or x26 x26) (or x7 x21)) (or x79 x96))) (or x13 x5)) (and (and (and (and (or x53 (not (= x154 x143))) (or x21 (not (= x154 x118)))) (or x17 (not (= x71 x154)))) (or x86 (not (= x94 x154)))) (or x141 (not (= x154 x35))))) (and (and (or (not (= x89 x154)) x59) (and (or x3 (not (= x154 x64))) (and (or x137 (not (= x154 x14))) (or (not (= x154 x54)) x79)))) (or x76 (not (= x154 x122))))))) (and (and (and (or x57 (not (= x157 x42))) (and (or (not (= x52 x42)) x90) (and (or x48 (not (= x11 x42))) (or x13 (not (= x32 x42)))))) (or x27 (not (= x12 x42)))) (and (and (and (or (not (= x42 x122)) x76) (and (or x59 (not (= x42 x89))) (and (and (or (not (= x42 x14)) x137) (or (not (= x54 x42)) x79)) (or x3 (not (= x64 x42)))))) (and (and (or x141 x48) (and (or x147 x86) (and (or x17 x137) (and (or x53 x53) (or x21 x7))))) (and (or (not (= x115 x42)) x5) (and (and (or (not (= x42 x149)) x96) (and (or x7 (not (= x42 x126))) (or x26 (not (= x42 x31))))) (or (not (= x42 x50)) x60))))) (and (and (or (not (= x42 x28)) x51) (and (or (not (= x42 x117)) x4) (and (or x147 (not (= x92 x42))) (or (not (= x42 x103)) x72)))) (or (not (= x66 x42)) x100)))))) (and (and (and (and (and (or (not (= x105 x11)) x48) (or x13 (not (= x105 x32)))) (or (not (= x105 x52)) x90)) (or x57 (not (= x157 x105)))) (or x27 (not (= x12 x105)))) (and (and (and (or x51 x51) (and (or x59 x4) (and (or x60 x72) (or x147 x86)))) (or x57 x100)) (and (and (or x76 (not (= x122 x105))) (and (or (not (= x105 x89)) x59) (and (and (or (not (= x105 x14)) x137) (or (not (= x54 x105)) x79)) (or (not (= x105 x64)) x3)))) (and (and (or (not (= x35 x105)) x141) (and (or x86 (not (= x94 x105))) (and (and (or (not (= x105 x143)) x53) (or x21 (not (= x118 x105)))) (or x17 (not (= x71 x105)))))) (and (and (and (and (or x26 (not (= x105 x31))) (or x7 (not (= x126 x105)))) (or (not (= x105 x149)) x96)) (or (not (= x105 x50)) x60)) (or x5 (not (= x115 x105)))))))))))))
(assert (let ((x103 (x88 x144 x154)) (x48 (x88 x105 x144)) (x149 (x88 x154 x144)) (x11 (x88 x105 x154)) (x115 (x88 x105 x145)) (x14 (x88 x42 x145)) (x92 (x88 x154 x145)) (x50 (x88 x144 x144)) (x52 (x88 x145 x42)) (x147 (x88 x144 x42)) (x31 (x88 x42 x105)) (x117 (x88 x144 x105)) (x32 (x88 x105 x105)) (x122 (x88 x145 x154)) (x28 (x88 x105 x42)) (x66 (x88 x145 x105)) (x89 (x88 x144 x145)) (x53 (x88 x42 x42)) (x137 (x88 x154 x42)) (x64 (x88 x154 x105)) (x157 (x88 x145 x144)) (x7 (x88 x42 x144)) (x54 (x88 x154 x154)) (x126 (x88 x42 x154)) (x12 (x88 x145 x145))) (and (and (and (and (and (and (and (and (or (or (or (= x53 x144) (or (= x53 x154) (= x53 x42))) (= x105 x53)) (= x53 x145)) (or (= x126 x145) (or (= x105 x126) (or (= x126 x144) (or (= x126 x42) (= x154 x126)))))) (or (or (or (= x7 x144) (or (= x7 x154) (= x42 x7))) (= x105 x7)) (= x145 x7))) (or (or (or (= x144 x31) (or (= x31 x42) (= x31 x154))) (= x31 x105)) (= x31 x145))) (or (= x14 x145) (or (or (= x144 x14) (or (= x154 x14) (= x42 x14))) (= x14 x105)))) (and (or (= x92 x145) (or (= x105 x92) (or (or (= x92 x154) (= x92 x42)) (= x144 x92)))) (and (and (or (or (= x105 x149) (or (= x144 x149) (or (= x149 x154) (= x42 x149)))) (= x145 x149)) (and (or (= x145 x54) (or (= x105 x54) (or (= x144 x54) (or (= x54 x42) (= x54 x154))))) (or (= x137 x145) (or (= x137 x105) (or (= x137 x144) (or (= x137 x42) (= x154 x137))))))) (or (or (= x105 x64) (or (= x144 x64) (or (= x154 x64) (= x42 x64)))) (= x64 x145))))) (and (or (or (or (= x144 x89) (or (= x42 x89) (= x89 x154))) (= x89 x105)) (= x145 x89)) (and (or (= x117 x145) (or (= x105 x117) (or (= x117 x144) (or (= x154 x117) (= x42 x117))))) (and (or (or (= x105 x50) (or (or (= x50 x154) (= x42 x50)) (= x50 x144))) (= x50 x145)) (and (or (or (or (or (= x103 x154) (= x103 x42)) (= x144 x103)) (= x103 x105)) (= x145 x103)) (or (= x145 x147) (or (or (= x147 x144) (or (= x154 x147) (= x147 x42))) (= x105 x147)))))))) (and (and (and (and (or (or (= x105 x11) (or (= x144 x11) (or (= x11 x42) (= x154 x11)))) (= x11 x145)) (or (or (= x105 x28) (or (= x28 x144) (or (= x28 x42) (= x28 x154)))) (= x145 x28))) (or (= x48 x145) (or (= x48 x105) (or (or (= x48 x154) (= x42 x48)) (= x144 x48))))) (or (= x32 x145) (or (or (or (= x32 x154) (= x32 x42)) (= x144 x32)) (= x32 x105)))) (or (= x115 x145) (or (or (= x144 x115) (or (= x115 x42) (= x154 x115))) (= x105 x115))))) (and (and (and (or (or (or (= x144 x157) (or (= x154 x157) (= x42 x157))) (= x105 x157)) (= x145 x157)) (and (or (or (= x105 x52) (or (= x52 x144) (or (= x52 x42) (= x52 x154)))) (= x145 x52)) (or (or (= x105 x122) (or (or (= x122 x42) (= x154 x122)) (= x144 x122))) (= x145 x122)))) (or (= x66 x145) (or (= x105 x66) (or (= x66 x144) (or (= x154 x66) (= x42 x66)))))) (or (= x12 x145) (or (or (or (= x154 x12) (= x12 x42)) (= x12 x144)) (= x105 x12)))))))
(assert (let ((x31 (x88 x105 x105)) (x14 (x88 x145 x145)) (x7 (x88 x144 x144)) (x126 (x88 x154 x154)) (x53 (x88 x42 x42))) (or (and (not (= x145 x14)) (and (not (= x31 x145)) (and (and (not (= x53 x145)) (not (= x145 x126))) (not (= x145 x7))))) (or (or (and (not (= x144 x14)) (and (and (and (not (= x144 x53)) (not (= x126 x144))) (not (= x144 x7))) (not (= x144 x31)))) (or (and (not (= x14 x154)) (and (and (not (= x7 x154)) (and (not (= x126 x154)) (not (= x154 x53)))) (not (= x31 x154)))) (and (and (and (not (= x42 x7)) (and (not (= x42 x53)) (not (= x126 x42)))) (not (= x31 x42))) (not (= x42 x14))))) (and (not (= x105 x14)) (and (not (= x31 x105)) (and (not (= x105 x7)) (and (not (= x53 x105)) (not (= x105 x126))))))))))
(assert (or (and (not (= x145 (x88 (x88 x145 x145) x145))) (and (and (and (not (= (x88 (x88 x145 x42) x145) x42)) (not (= x154 (x88 (x88 x145 x154) x145)))) (not (= x144 (x88 (x88 x145 x144) x145)))) (not (= x105 (x88 (x88 x145 x105) x145))))) (or (and (and (not (= (x88 (x88 x105 x105) x105) x105)) (and (and (not (= (x88 (x88 x105 x42) x105) x42)) (not (= x154 (x88 (x88 x105 x154) x105)))) (not (= x144 (x88 (x88 x105 x144) x105))))) (not (= (x88 (x88 x105 x145) x105) x145))) (or (or (and (and (not (= x105 (x88 (x88 x154 x105) x154))) (and (not (= (x88 (x88 x154 x144) x154) x144)) (and (not (= x154 (x88 (x88 x154 x154) x154))) (not (= (x88 (x88 x154 x42) x154) x42))))) (not (= x145 (x88 (x88 x154 x145) x154)))) (and (not (= x145 (x88 (x88 x42 x145) x42))) (and (and (and (not (= (x88 (x88 x42 x42) x42) x42)) (not (= x154 (x88 (x88 x42 x154) x42)))) (not (= x144 (x88 (x88 x42 x144) x42)))) (not (= (x88 (x88 x42 x105) x42) x105))))) (and (not (= x145 (x88 (x88 x144 x145) x144))) (and (not (= x105 (x88 (x88 x144 x105) x144))) (and (not (= (x88 (x88 x144 x144) x144) x144)) (and (not (= (x88 (x88 x144 x42) x144) x42)) (not (= x154 (x88 (x88 x144 x154) x144)))))))))))
(assert (let ((x11 (x88 x105 x154)) (x66 (x88 x145 x105)) (x92 (x88 x154 x145)) (x89 (x88 x144 x145)) (x64 (x88 x154 x105)) (x28 (x88 x105 x42)) (x31 (x88 x42 x105)) (x126 (x88 x42 x154)) (x157 (x88 x145 x144)) (x12 (x88 x145 x145)) (x7 (x88 x42 x144)) (x147 (x88 x144 x42)) (x117 (x88 x144 x105)) (x137 (x88 x154 x42)) (x53 (x88 x42 x42)) (x14 (x88 x42 x145)) (x50 (x88 x144 x144)) (x32 (x88 x105 x105)) (x103 (x88 x144 x154)) (x48 (x88 x105 x144)) (x122 (x88 x145 x154)) (x54 (x88 x154 x154)) (x115 (x88 x105 x145)) (x52 (x88 x145 x42)) (x149 (x88 x154 x144))) (or (and (not (= (x88 x12 x12) x145)) (and (and (not (= (x88 x157 x157) x144)) (and (not (= (x88 x52 x52) x42)) (not (= (x88 x122 x122) x154)))) (not (= x105 (x88 x66 x66))))) (or (or (and (not (= x145 (x88 x89 x89))) (and (and (not (= x144 (x88 x50 x50))) (and (not (= (x88 x103 x103) x154)) (not (= (x88 x147 x147) x42)))) (not (= (x88 x117 x117) x105)))) (or (and (and (not (= x105 (x88 x64 x64))) (and (and (not (= x154 (x88 x54 x54))) (not (= (x88 x137 x137) x42))) (not (= x144 (x88 x149 x149))))) (not (= x145 (x88 x92 x92)))) (and (and (not (= (x88 x31 x31) x105)) (and (and (not (= x42 (x88 x53 x53))) (not (= x154 (x88 x126 x126)))) (not (= (x88 x7 x7) x144)))) (not (= (x88 x14 x14) x145))))) (and (not (= x145 (x88 x115 x115))) (and (and (and (not (= (x88 x11 x11) x154)) (not (= (x88 x28 x28) x42))) (not (= x144 (x88 x48 x48)))) (not (= x105 (x88 x32 x32)))))))))
(assert (or (and (not (= x145 (x88 x145 (x88 x145 x145)))) (and (not (= (x88 x105 (x88 x145 x105)) x145)) (and (and (not (= (x88 x42 (x88 x145 x42)) x145)) (not (= (x88 x154 (x88 x145 x154)) x145))) (not (= x145 (x88 x144 (x88 x145 x144))))))) (or (or (and (not (= (x88 x145 (x88 x144 x145)) x144)) (and (not (= x144 (x88 x105 (x88 x144 x105)))) (and (and (not (= (x88 x42 (x88 x144 x42)) x144)) (not (= (x88 x154 (x88 x144 x154)) x144))) (not (= (x88 x144 (x88 x144 x144)) x144))))) (or (and (and (not (= x154 (x88 x105 (x88 x154 x105)))) (and (not (= x154 (x88 x144 (x88 x154 x144)))) (and (not (= x154 (x88 x42 (x88 x154 x42)))) (not (= x154 (x88 x154 (x88 x154 x154))))))) (not (= (x88 x145 (x88 x154 x145)) x154))) (and (not (= x42 (x88 x145 (x88 x42 x145)))) (and (and (and (not (= x42 (x88 x154 (x88 x42 x154)))) (not (= x42 (x88 x42 (x88 x42 x42))))) (not (= (x88 x144 (x88 x42 x144)) x42))) (not (= (x88 x105 (x88 x42 x105)) x42)))))) (and (not (= x105 (x88 x145 (x88 x105 x145)))) (and (and (and (not (= (x88 x42 (x88 x105 x42)) x105)) (not (= x105 (x88 x154 (x88 x105 x154))))) (not (= (x88 x144 (x88 x105 x144)) x105))) (not (= (x88 x105 (x88 x105 x105)) x105)))))))
(assert (let ((x28 (x88 x42 x105)) (x31 (x88 x105 x42)) (x54 (x88 x154 x154)) (x64 (x88 x105 x154)) (x137 (x88 x42 x154)) (x157 (x88 x144 x145)) (x149 (x88 x144 x154)) (x115 (x88 x145 x105)) (x122 (x88 x154 x145)) (x147 (x88 x42 x144)) (x117 (x88 x105 x144)) (x52 (x88 x42 x145)) (x53 (x88 x42 x42)) (x32 (x88 x105 x105)) (x7 (x88 x144 x42)) (x12 (x88 x145 x145)) (x66 (x88 x105 x145)) (x89 (x88 x145 x144)) (x126 (x88 x154 x42)) (x11 (x88 x154 x105)) (x50 (x88 x144 x144)) (x48 (x88 x144 x105)) (x92 (x88 x145 x154)) (x14 (x88 x145 x42)) (x103 (x88 x154 x144))) (or (and (and (and (and (not (= x42 (x88 x52 x52))) (not (= x154 (x88 x122 x122)))) (not (= (x88 x157 x157) x144))) (not (= (x88 x66 x66) x105))) (not (= x145 (x88 x12 x12)))) (or (or (and (and (and (and (not (= x42 (x88 x147 x147))) (not (= x154 (x88 x103 x103)))) (not (= (x88 x50 x50) x144))) (not (= x105 (x88 x117 x117)))) (not (= x145 (x88 x89 x89)))) (or (and (not (= x145 (x88 x14 x14))) (and (not (= (x88 x31 x31) x105)) (and (not (= (x88 x7 x7) x144)) (and (not (= (x88 x126 x126) x154)) (not (= (x88 x53 x53) x42)))))) (and (and (and (not (= x144 (x88 x149 x149))) (and (not (= (x88 x137 x137) x42)) (not (= (x88 x54 x54) x154)))) (not (= x105 (x88 x64 x64)))) (not (= x145 (x88 x92 x92)))))) (and (and (not (= x105 (x88 x32 x32))) (and (and (not (= (x88 x28 x28) x42)) (not (= (x88 x11 x11) x154))) (not (= (x88 x48 x48) x144)))) (not (= x145 (x88 x115 x115))))))))
(assert (not (and (and (= x154 (x88 x145 x105)) (and (= (x88 x145 x144) x144) (and (and (= x145 (x88 x145 x42)) (and (= x154 (x88 x105 x145)) (and (and (= (x88 x105 x144) x105) (and (= (x88 x105 x154) x145) (and (= (x88 x105 x42) x144) (and (= (x88 x144 x145) x145) (and (= (x88 x144 x105) x144) (and (and (and (= (x88 x144 x42) x105) (and (= (x88 x154 x145) x144) (and (= (x88 x154 x105) x105) (and (= (x88 x154 x144) x145) (and (= x154 (x88 x154 x154)) (and (and (= x105 (x88 x42 x145)) (and (and (and (= (x88 x42 x42) x154) (= x144 (x88 x42 x154))) (= x42 (x88 x42 x144))) (= (x88 x42 x105) x145))) (= x42 (x88 x154 x42)))))))) (= (x88 x144 x154) x42)) (= (x88 x144 x144) x154))))))) (= x42 (x88 x105 x105))))) (= x105 (x88 x145 x154))))) (= x42 (x88 x145 x145)))))
(assert (let ((x122 (x88 x154 x145)) (x118 (x88 x145 x154)) (x81 (x88 x145 x105)) (x83 (x88 x145 x145)) (x14 (x88 x42 x105)) (x137 (x88 x42 x145)) (x76 (x88 x144 x144)) (x64 (x88 x144 x42)) (x7 (x88 x42 x154)) (x115 (x88 x154 x144)) (x126 (x88 x42 x42)) (x52 (x88 x154 x105)) (x31 (x88 x42 x144)) (x92 (x88 x105 x42)) (x107 (x88 x105 x105)) (x131 (x88 x105 x145)) (x27 (x88 x105 x144)) (x146 (x88 x145 x144)) (x51 (x88 x144 x145)) (x149 (x88 x154 x42)) (x147 (x88 x145 x42)) (x143 (x88 x105 x154)) (x32 (x88 x154 x154)) (x4 (x88 x144 x105)) (x12 (x88 x144 x154))) (let ((x35 (= x105 x32)) (x58 (= x145 x4)) (x46 (= x105 x76)) (x26 (= x145 x7)) (x28 (= x7 x42)) (x56 (= x147 x145)) (x70 (= x122 x144)) (x13 (= x42 x115)) (x140 (= x64 x144)) (x119 (= x143 x42)) (x153 (= x122 x105)) (x98 (= x154 x83)) (x95 (= x42 x131)) (x65 (= x51 x144)) (x41 (= x92 x154)) (x82 (= x105 x115)) (x80 (= x105 x4)) (x135 (= x105 x146)) (x6 (= x145 x107)) (x106 (= x144 x131)) (x25 (= x154 x107)) (x57 (= x154 x76)) (x77 (= x145 x52)) (x23 (= x105 x51)) (x90 (= x115 x154)) (x112 (= x4 x154)) (x139 (= x154 x81)) (x150 (= x154 x122)) (x30 (= x52 x144)) (x66 (= x32 x154)) (x38 (= x14 x42)) (x39 (= x51 x42)) (x17 (= x144 x32)) (x91 (= x52 x105)) (x113 (= x143 x105)) (x43 (= x137 x105)) (x97 (= x12 x145)) (x109 (= x42 x27)) (x60 (= x31 x42)) (x8 (= x154 x146)) (x74 (= x4 x42)) (x136 (= x131 x154)) (x53 (= x42 x126)) (x130 (= x118 x154)) (x67 (= x131 x145)) (x40 (= x137 x154)) (x93 (= x42 x83)) (x96 (= x42 x64)) (x101 (= x105 x12)) (x111 (= x118 x145)) (x37 (= x115 x145)) (x24 (= x154 x51)) (x123 (= x144 x31)) (x152 (= x76 x145)) (x125 (= x144 x27)) (x47 (= x107 x144)) (x10 (= x105 x107)) (x89 (= x149 x42)) (x2 (= x105 x14)) (x61 (= x4 x144)) (x11 (= x32 x42)) (x85 (= x146 x42)) (x127 (= x115 x144)) (x33 (= x147 x154)) (x72 (= x12 x42)) (x71 (= x7 x144)) (x20 (= x42 x107)) (x22 (= x143 x144)) (x103 (= x126 x144)) (x158 (= x122 x145)) (x55 (= x31 x145)) (x18 (= x105 x83)) (x50 (= x105 x126)) (x78 (= x14 x144)) (x151 (= x42 x147)) (x75 (= x92 x105)) (x34 (= x144 x118)) (x155 (= x81 x42)) (x157 (= x154 x7)) (x69 (= x42 x52)) (x36 (= x143 x154)) (x138 (= x105 x27)) (x21 (= x144 x149)) (x87 (= x144 x92)) (x44 (= x118 x105)) (x68 (= x27 x145)) (x117 (= x145 x126)) (x156 (= x42 x118)) (x124 (= x145 x92)) (x129 (= x81 x144)) (x63 (= x145 x51)) (x121 (= x105 x147)) (x59 (= x154 x12)) (x1 (= x144 x137)) (x3 (= x64 x154)) (x5 (= x76 x42)) (x114 (= x137 x145)) (x100 (= x31 x154)) (x73 (= x64 x105)) (x54 (= x154 x126)) (x45 (= x122 x42)) (x84 (= x31 x105)) (x141 (= x145 x149)) (x16 (= x42 x137)) (x132 (= x76 x144)) (x104 (= x145 x143)) (x29 (= x154 x27)) (x62 (= x14 x154)) (x49 (= x81 x105)) (x99 (= x145 x83)) (x134 (= x145 x81)) (x108 (= x83 x144)) (x94 (= x105 x149)) (x110 (= x144 x147)) (x19 (= x144 x146)) (x159 (= x105 x131)) (x48 (= x154 x149)) (x9 (= x12 x144)) (x79 (= x32 x145)) (x102 (= x145 x146)) (x142 (= x64 x145)) (x148 (= x42 x92)) (x133 (= x14 x145)) (x15 (= x52 x154)) (x86 (= x7 x105))) (and (and (and (and (and (and (and (or (or (or x73 (or x94 x50)) x75) x121) (or (or (or x84 (or x86 x50)) x2) x43)) (and (and (or (or x78 (or (or x71 x103) x123)) x1) (or (or x87 (or (or x103 x21) x140)) x110)) (and (and (or x40 (or x62 (or (or x54 x157) x100))) (or (or (or (or x54 x48) x3) x41) x33)) (and (or (or x148 (or x96 (or x89 x53))) x151) (or (or x38 (or (or x28 x53) x60)) x16))))) (and (or (or (or x55 (or x117 x26)) x133) x114) (or (or x124 (or (or x141 x117) x142)) x56))) (and (and (or (or x77 (or x37 (or x79 x141))) x158) (or (or (or (or x26 x79) x97) x104) x111)) (and (and (and (or (or x22 (or (or x17 x71) x9)) x34) (or (or (or (or x17 x21) x127) x30) x70)) (and (and (or (or (or x72 (or x28 x11)) x119) x156) (or (or (or x13 (or x89 x11)) x69) x45)) (and (or x150 (or x15 (or x90 (or x66 x48)))) (or x130 (or (or x59 (or x66 x157)) x36))))) (and (or x153 (or x91 (or (or x94 x35) x82))) (or x44 (or (or (or x35 x86) x101) x113)))))) (and (and (or (or (or x152 (or x37 x55)) x68) x102) (or (or x58 (or (or x97 x142) x152)) x63)) (and (and (and (and (or (or x29 (or (or x100 x90) x57)) x8) (or (or (or x57 (or x3 x59)) x112) x24)) (and (or x85 (or (or (or x60 x13) x5) x109)) (or (or (or (or x72 x96) x5) x74) x39))) (and (or x65 (or (or (or x9 x140) x132) x61)) (or (or x125 (or (or x123 x127) x132)) x19))) (and (or (or (or (or x84 x82) x46) x138) x135) (or (or (or x46 (or x73 x101)) x80) x23))))) (and (and (or (or (or x68 (or x104 x124)) x6) x67) (or x134 (or x6 (or (or x133 x77) x58)))) (and (and (and (or x106 (or x47 (or x125 (or x22 x87)))) (or (or (or x61 (or x78 x30)) x47) x129)) (and (and (or x136 (or x25 (or (or x41 x36) x29))) (or (or x25 (or x112 (or x15 x62))) x139)) (and (or x95 (or x20 (or x109 (or x148 x119)))) (or x155 (or (or x74 (or x38 x69)) x20))))) (and (or (or (or x138 (or x113 x75)) x10) x159) (or x49 (or x10 (or x80 (or x2 x91)))))))) (and (and (or x99 (or (or (or x158 x114) x63) x67)) (or x99 (or x134 (or (or x56 x111) x102)))) (and (and (or (or (or (or x121 x44) x135) x49) x18) (or x18 (or x159 (or (or x43 x153) x23)))) (and (and (or x108 (or (or (or x70 x1) x65) x106)) (or (or (or (or x34 x110) x19) x129) x108)) (and (and (or x93 (or (or (or x16 x45) x39) x95)) (or x93 (or (or x85 (or x156 x151)) x155))) (and (or (or (or (or x150 x40) x24) x136) x98) (or (or x139 (or x8 (or x33 x130))) x98))))))))))
(assert (or (and (= x145 (x88 (x88 x145 x145) x145)) (and (and (and (= (x88 (x88 x154 x145) x145) x154) (= x42 (x88 (x88 x42 x145) x145))) (= x144 (x88 (x88 x144 x145) x145))) (= x105 (x88 (x88 x105 x145) x145)))) (or (and (= (x88 (x88 x145 x105) x105) x145) (and (= (x88 (x88 x105 x105) x105) x105) (and (= x144 (x88 (x88 x144 x105) x105)) (and (= x42 (x88 (x88 x42 x105) x105)) (= (x88 (x88 x154 x105) x105) x154))))) (or (and (= (x88 (x88 x145 x144) x144) x145) (and (and (and (= x42 (x88 (x88 x42 x144) x144)) (= x154 (x88 (x88 x154 x144) x144))) (= x144 (x88 (x88 x144 x144) x144))) (= x105 (x88 (x88 x105 x144) x144)))) (or (and (and (and (= x144 (x88 (x88 x144 x42) x42)) (and (= x154 (x88 (x88 x154 x42) x42)) (= (x88 (x88 x42 x42) x42) x42))) (= x105 (x88 (x88 x105 x42) x42))) (= (x88 (x88 x145 x42) x42) x145)) (and (= (x88 (x88 x145 x154) x154) x145) (and (and (= x144 (x88 (x88 x144 x154) x154)) (and (= x154 (x88 (x88 x154 x154) x154)) (= (x88 (x88 x42 x154) x154) x42))) (= (x88 (x88 x105 x154) x154) x105))))))))
(assert (or (= (x88 x145 x145) x145) (or (= (x88 x105 x105) x105) (or (= (x88 x144 x144) x144) (or (= x154 (x88 x154 x154)) (= (x88 x42 x42) x42))))))
(assert (let ((x72 (x88 x154 x154)) (x59 (x88 x105 x154)) (x9 (x88 x105 x144)) (x21 (x88 x42 x154)) (x143 (x88 x42 x42)) (x37 (x88 x145 x105)) (x94 (x88 x144 x42)) (x3 (x88 x154 x105)) (x140 (x88 x144 x105)) (x26 (x88 x145 x42)) (x123 (x88 x144 x145)) (x76 (x88 x154 x145)) (x127 (x88 x145 x144)) (x27 (x88 x144 x144)) (x41 (x88 x145 x145)) (x55 (x88 x105 x145)) (x17 (x88 x42 x144)) (x13 (x88 x154 x144)) (x142 (x88 x105 x105)) (x5 (x88 x144 x154)) (x86 (x88 x42 x105)) (x71 (x88 x154 x42)) (x4 (x88 x145 x154)) (x141 (x88 x42 x145)) (x35 (x88 x105 x42))) (let ((x14 (not (= x42 x94))) (x50 (not (= x42 x3))) (x56 (not (= x26 x145))) (x57 (not (= x154 x13))) (x79 (not (= x71 x154))) (x80 (not (= x144 x127))) (x126 (not (= x71 x42))) (x157 (not (= x42 x37))) (x117 (not (= x9 x42))) (x39 (not (= x86 x105))) (x60 (not (= x72 x154))) (x68 (not (= x144 x41))) (x24 (not (= x127 x105))) (x148 (not (= x154 x141))) (x52 (not (= x127 x42))) (x46 (not (= x140 x154))) (x132 (not (= x154 x35))) (x122 (not (= x123 x42))) (x81 (not (= x13 x144))) (x118 (not (= x154 x143))) (x138 (not (= x144 x141))) (x61 (not (= x144 x9))) (x156 (not (= x17 x105))) (x6 (not (= x72 x105))) (x63 (not (= x37 x145))) (x103 (not (= x59 x42))) (x97 (not (= x154 x142))) (x15 (not (= x94 x144))) (x87 (not (= x27 x144))) (x33 (not (= x9 x105))) (x19 (not (= x143 x145))) (x149 (not (= x13 x42))) (x53 (not (= x143 x42))) (x11 (not (= x42 x26))) (x78 (not (= x59 x144))) (x91 (not (= x144 x76))) (x10 (not (= x144 x123))) (x82 (not (= x154 x9))) (x29 (not (= x143 x144))) (x70 (not (= x72 x145))) (x107 (not (= x71 x144))) (x133 (not (= x143 x105))) (x147 (not (= x42 x86))) (x125 (not (= x86 x144))) (x40 (not (= x105 x4))) (x135 (not (= x35 x145))) (x64 (not (= x27 x42))) (x150 (not (= x105 x76))) (x119 (not (= x4 x154))) (x36 (not (= x41 x154))) (x131 (not (= x144 x21))) (x110 (not (= x55 x105))) (x111 (not (= x141 x145))) (x155 (not (= x13 x105))) (x12 (not (= x42 x41))) (x104 (not (= x55 x144))) (x106 (not (= x17 x145))) (x75 (not (= x144 x142))) (x101 (not (= x59 x154))) (x25 (not (= x144 x5))) (x152 (not (= x154 x26))) (x84 (not (= x154 x3))) (x85 (not (= x105 x5))) (x129 (not (= x145 x71))) (x113 (not (= x144 x26))) (x90 (not (= x5 x154))) (x32 (not (= x42 x4))) (x49 (not (= x86 x145))) (x28 (not (= x42 x142))) (x62 (not (= x144 x72))) (x134 (not (= x145 x76))) (x16 (not (= x105 x27))) (x121 (not (= x145 x13))) (x108 (not (= x5 x145))) (x43 (not (= x59 x145))) (x99 (not (= x145 x41))) (x1 (not (= x145 x21))) (x34 (not (= x105 x41))) (x137 (not (= x17 x42))) (x98 (not (= x105 x37))) (x45 (not (= x35 x105))) (x130 (not (= x105 x140))) (x102 (not (= x4 x145))) (x124 (not (= x37 x144))) (x65 (not (= x145 x94))) (x139 (not (= x26 x105))) (x69 (not (= x154 x123))) (x93 (not (= x3 x105))) (x158 (not (= x123 x145))) (x146 (not (= x154 x27))) (x58 (not (= x105 x21))) (x109 (not (= x154 x76))) (x48 (not (= x42 x141))) (x112 (not (= x17 x144))) (x2 (not (= x144 x4))) (x100 (not (= x17 x154))) (x73 (not (= x86 x154))) (x8 (not (= x142 x105))) (x114 (not (= x145 x127))) (x89 (not (= x140 x42))) (x74 (not (= x37 x154))) (x47 (not (= x144 x140))) (x51 (not (= x94 x154))) (x22 (not (= x144 x35))) (x23 (not (= x9 x145))) (x83 (not (= x141 x105))) (x92 (not (= x42 x35))) (x66 (not (= x42 x55))) (x95 (not (= x105 x59))) (x44 (not (= x145 x27))) (x38 (not (= x154 x127))) (x153 (not (= x3 x145))) (x115 (not (= x42 x76))) (x96 (not (= x154 x21))) (x30 (not (= x3 x144))) (x7 (not (= x42 x21))) (x136 (not (= x123 x105))) (x20 (not (= x154 x55))) (x54 (not (= x42 x5))) (x31 (not (= x42 x72))) (x18 (not (= x145 x142))) (x67 (not (= x55 x145))) (x151 (not (= x105 x94))) (x159 (not (= x140 x145))) (x77 (not (= x105 x71)))) (or (and (and (and (or x63 x67) (and (or x114 x158) (and (or x56 x111) (or x134 x102)))) (or x99 x99)) (and (and (and (and (or x159 x23) (and (and (or x65 x106) (or x108 x121)) (or x44 x44))) (or x114 x158)) (and (and (or x56 x111) (and (and (and (or x19 x19) (or x1 x129)) (or x65 x106)) (or x135 x49))) (and (or x134 x102) (and (or x153 x43) (and (and (or x129 x1) (or x70 x70)) (or x121 x108)))))) (and (or x63 x67) (and (or x18 x18) (and (and (or x153 x43) (or x49 x135)) (or x23 x159)))))) (or (or (or (and (and (and (or x66 x157) (and (and (or x117 x89) (and (or x103 x50) (or x147 x92))) (or x28 x28))) (and (and (and (or x48 x11) (and (and (and (or x53 x53) (or x126 x7)) (or x14 x137)) (or x92 x147))) (and (and (and (or x54 x149) (and (or x31 x31) (or x7 x126))) (or x50 x103)) (or x32 x115))) (and (and (or x117 x89) (and (and (or x54 x149) (or x14 x137)) (or x64 x64))) (or x122 x52)))) (and (or x12 x12) (and (and (or x122 x52) (and (or x11 x48) (or x32 x115))) (or x66 x157)))) (and (and (and (and (and (and (or x132 x73) (and (and (or x118 x118) (or x79 x96)) (or x100 x51))) (or x148 x152)) (and (and (and (and (or x60 x60) (or x96 x79)) (or x90 x57)) (or x84 x101)) (or x119 x109))) (and (or x38 x69) (and (and (or x146 x146) (and (or x51 x100) (or x90 x57))) (or x82 x46)))) (and (or x20 x74) (and (and (or x82 x46) (and (or x84 x101) (or x132 x73))) (or x97 x97)))) (and (or x36 x36) (and (and (or x38 x69) (and (or x119 x109) (or x152 x148))) (or x20 x74))))) (and (and (and (or x124 x104) (and (or x10 x80) (and (or x138 x113) (or x2 x91)))) (or x68 x68)) (and (and (and (or x10 x80) (and (and (and (or x81 x25) (or x15 x112)) (or x87 x87)) (or x47 x61))) (and (and (or x113 x138) (and (and (or x112 x15) (and (or x107 x131) (or x29 x29))) (or x125 x22))) (and (or x91 x2) (and (or x30 x78) (and (and (or x62 x62) (or x107 x131)) (or x81 x25)))))) (and (or x124 x104) (and (and (and (or x125 x22) (or x30 x78)) (or x61 x47)) (or x75 x75)))))) (and (and (and (or x98 x110) (and (or x8 x8) (and (or x130 x33) (and (or x93 x95) (or x39 x45))))) (and (and (and (and (or x95 x93) (and (and (or x77 x58) (or x6 x6)) (or x155 x85))) (or x150 x40)) (and (and (or x45 x39) (and (and (or x58 x77) (or x133 x133)) (or x151 x156))) (or x139 x83))) (and (or x24 x136) (and (or x33 x130) (and (or x16 x16) (and (or x156 x151) (or x85 x155))))))) (and (and (and (or x136 x24) (and (or x150 x40) (or x83 x139))) (or x110 x98)) (or x34 x34))))))))
(assert (and (and (and (= x42 (x88 x145 x145)) (= (x88 x42 x42) x154)) (= x144 (x88 x154 x145))) (= (x88 x42 x145) x105)))
(assert (and (and (or (or (= (x88 x105 (x88 x105 x105)) x105) (or (= (x88 x105 (x88 x105 x144)) x144) (or (= (x88 x105 (x88 x105 x154)) x154) (= (x88 x105 (x88 x105 x42)) x42)))) (= (x88 x105 (x88 x105 x145)) x145)) (and (and (or (= (x88 x154 (x88 x154 x145)) x145) (or (= (x88 x154 (x88 x154 x105)) x105) (or (or (= x42 (x88 x154 (x88 x154 x42))) (= x154 (x88 x154 (x88 x154 x154)))) (= (x88 x154 (x88 x154 x144)) x144)))) (or (= x145 (x88 x42 (x88 x42 x145))) (or (or (or (= (x88 x42 (x88 x42 x42)) x42) (= x154 (x88 x42 (x88 x42 x154)))) (= x144 (x88 x42 (x88 x42 x144)))) (= (x88 x42 (x88 x42 x105)) x105)))) (or (= (x88 x144 (x88 x144 x145)) x145) (or (or (or (= (x88 x144 (x88 x144 x42)) x42) (= x154 (x88 x144 (x88 x144 x154)))) (= (x88 x144 (x88 x144 x144)) x144)) (= x105 (x88 x144 (x88 x144 x105))))))) (or (= (x88 x145 (x88 x145 x145)) x145) (or (= (x88 x145 (x88 x145 x105)) x105) (or (or (= (x88 x145 (x88 x145 x154)) x154) (= x42 (x88 x145 (x88 x145 x42)))) (= x144 (x88 x145 (x88 x145 x144))))))))
(assert (and (and (not (= x144 x145)) (and (and (and (not (= x105 x154)) (and (and (and (not (= x42 x105)) (and (not (= x144 x42)) (not (= x154 x42)))) (not (= x145 x42))) (not (= x154 x144)))) (not (= x154 x145))) (not (= x144 x105)))) (not (= x145 x105))))
(assert (let ((x64 (x88 x105 x154)) (x53 (x88 x42 x42)) (x28 (x88 x42 x105)) (x117 (x88 x105 x144)) (x50 (x88 x144 x144)) (x147 (x88 x42 x144)) (x7 (x88 x144 x42)) (x12 (x88 x145 x145)) (x103 (x88 x154 x144)) (x92 (x88 x145 x154)) (x54 (x88 x154 x154)) (x52 (x88 x42 x145)) (x115 (x88 x145 x105)) (x11 (x88 x154 x105)) (x126 (x88 x154 x42)) (x89 (x88 x145 x144)) (x31 (x88 x105 x42)) (x14 (x88 x145 x42)) (x122 (x88 x154 x145)) (x66 (x88 x105 x145)) (x32 (x88 x105 x105)) (x137 (x88 x42 x154)) (x48 (x88 x144 x105)) (x149 (x88 x144 x154)) (x157 (x88 x144 x145))) (and (and (and (and (not (= x12 x157)) (and (and (not (= x122 x12)) (and (and (not (= x157 x122)) (and (and (not (= x66 x52)) (and (not (= x122 x52)) (not (= x157 x52)))) (not (= x52 x12)))) (not (= x122 x66)))) (not (= x66 x157)))) (not (= x12 x66))) (and (and (and (and (not (= x64 x92)) (and (not (= x149 x92)) (and (and (not (= x54 x92)) (and (not (= x54 x64)) (and (not (= x149 x54)) (and (and (and (not (= x54 x137)) (not (= x137 x149))) (not (= x64 x137))) (not (= x92 x137)))))) (not (= x149 x64))))) (and (and (not (= x14 x7)) (and (and (and (and (and (and (not (= x31 x53)) (and (not (= x7 x53)) (not (= x53 x126)))) (not (= x53 x14))) (not (= x126 x7))) (not (= x31 x126))) (not (= x126 x14))) (not (= x31 x7)))) (not (= x14 x31)))) (and (and (and (not (= x50 x117)) (and (not (= x103 x89)) (and (not (= x103 x117)) (and (and (not (= x147 x89)) (and (and (not (= x103 x147)) (not (= x147 x50))) (not (= x117 x147)))) (not (= x50 x103)))))) (not (= x50 x89))) (not (= x89 x117)))) (and (and (and (not (= x48 x32)) (and (not (= x115 x11)) (and (and (not (= x48 x11)) (and (not (= x28 x115)) (and (not (= x32 x28)) (and (not (= x11 x28)) (not (= x28 x48)))))) (not (= x11 x32))))) (not (= x48 x115))) (not (= x32 x115))))) (and (and (and (and (and (and (not (= x50 x48)) (and (and (and (and (not (= x157 x7)) (and (and (not (= x149 x7)) (not (= x50 x7))) (not (= x7 x48)))) (not (= x50 x149))) (not (= x48 x149))) (not (= x157 x149)))) (not (= x50 x157))) (not (= x48 x157))) (and (and (and (and (and (not (= x122 x54)) (and (not (= x11 x54)) (and (and (not (= x122 x126)) (and (and (not (= x126 x103)) (not (= x126 x54))) (not (= x11 x126)))) (not (= x54 x103))))) (not (= x11 x103))) (not (= x122 x103))) (not (= x122 x11))) (and (not (= x52 x28)) (and (not (= x52 x147)) (and (and (and (and (and (not (= x52 x53)) (and (not (= x53 x28)) (and (not (= x53 x137)) (not (= x53 x147))))) (not (= x147 x137))) (not (= x28 x137))) (not (= x52 x137))) (not (= x147 x28))))))) (and (not (= x66 x32)) (and (not (= x117 x66)) (and (not (= x117 x32)) (and (and (not (= x64 x32)) (and (not (= x117 x64)) (and (and (and (not (= x31 x117)) (not (= x31 x64))) (not (= x31 x32))) (not (= x31 x66))))) (not (= x66 x64))))))) (and (and (and (not (= x115 x89)) (and (and (and (and (not (= x12 x14)) (and (not (= x115 x14)) (and (not (= x92 x14)) (not (= x14 x89))))) (not (= x92 x89))) (not (= x92 x115))) (not (= x92 x12)))) (not (= x12 x89))) (not (= x12 x115)))))))
(check-sat)
(exit)
